/*********************************************
 * OPL 12.6.0.0 Data
 * Author: Adrian Rodriguez Bazaga, Pau Rodriguez Esmerats
 * Creation Date: 09/12/2017 at 00:43:39
 *********************************************/

maxConsec=14;
maxPresence=18;
maxHours=11;
minHours=6;
hours=20;
demand= [9 10 11 8 11 8 11 9 11 9 11 9 10 7 4 0 1 0 0 0  ];
nNurses=13;
